
  32    4
  10   10   10   10

   0   0   0   0   0   2 2 17 
   4  10  10  10  10   1 3 
   6  10  10  10  10   2 31 4 
   3  10  10  10  10   3 30 29 5 
   5  10  10  10  10   1 6 
   3  10  10  10  10   2 15 7 
   2  10  10  10  10   4 28 27 21 8 
   2  10  10  10  10   1 9 
   6  10  10  10  10   1 10 
   7  10  10  10  10   2 25 11 
   7  10  10  10  10   2 24 12 
   7  10  10  10  10   2 23 13 
   4  10  10  10  10   1 14 
  10  10  10  10  10   1 16 
   8  10  10  10  10   3 27 22 21 
   3  10  10  10  10   1 18 
   9  10  10  10  10   1 18 
   4  10  10  10  10   1 19 
   2  10  10  10  10   1 20 
   4  10  10  10  10   1 22 
   3  10  10  10  10   1 26 
   8  10  10  10  10   1 32
  10  10  10  10  10   1 32
   9  10  10  10  10   1 32
   4  10  10  10  10   1 32
   7  10  10  10  10   1 32
   8  10  10  10  10   1 32
   8  10  10  10  10   1 32
   6  10  10  10  10   1 32
   4  10  10  10  10   1 32
   9  10  10  10  10   1 32
   0   0   0   0   0   0 
